188 81 182 103 105 114 11 27 46 132 163 113 24 19 141 9 181 20 55 150 94 147 130 162 25 86 112 54 8 101 115 177 144 135 116 91 140 47 143 29 1 99 118 50 191 18 195 36 34 61 59 52 123 117 4 176 2 82 39 5 17 84 58 149 63 142 151 15 62 153 53 90 76 42 154 3 43 92 122 121 70 187 38 72 14 171 136 83 40 146 78 180 12 178 87 164 23 26 174 129 33 80 179 119 137 51 7 65 37 185 148 168 49 0 155 199 125 161 31 104 96 166 93 16 89 139 138 97 169 48 69 152 88 10 167 109 22 41 172 184 21 192 110 102 57 127 28 190 196 198 107 128 35 175 158 74 66 131 197 6 170 60 111 73 194 100 189 120 45 145 124 108 133 68 157 183 106 156 193 79 75 126 160 134 71 56 30 77 98 44 165 32 67 13 186 64 173 159 85 95